c *********************************
c * Circuit generated by BenCGen
c *
c * RippleCarryAdder_136_136_136_InOutT
c *
c * Ports with 1 gate(s): 1
c * Ports with 2 gate(s): 681
c * Total gates: 682
c *********************************
p cnf 954 2317
1 411 0
-1 -411 0
1 -410 0
411 -410 0
-1 -411 410 0
1 137 -413 0
-1 137 413 0
1 -137 413 0
-1 -137 -413 0
413 410 -273 0
-413 410 273 0
413 -410 273 0
-413 -410 -273 0
410 -414 0
413 -414 0
-410 -413 414 0
137 -415 0
1 -415 0
-137 -1 415 0
-414 412 0
-415 412 0
414 415 -412 0
2 138 -417 0
-2 138 417 0
2 -138 417 0
-2 -138 -417 0
417 412 -274 0
-417 412 274 0
417 -412 274 0
-417 -412 -274 0
412 -418 0
417 -418 0
-412 -417 418 0
138 -419 0
2 -419 0
-138 -2 419 0
-418 416 0
-419 416 0
418 419 -416 0
3 139 -421 0
-3 139 421 0
3 -139 421 0
-3 -139 -421 0
421 416 -275 0
-421 416 275 0
421 -416 275 0
-421 -416 -275 0
416 -422 0
421 -422 0
-416 -421 422 0
139 -423 0
3 -423 0
-139 -3 423 0
-422 420 0
-423 420 0
422 423 -420 0
4 140 -425 0
-4 140 425 0
4 -140 425 0
-4 -140 -425 0
425 420 -276 0
-425 420 276 0
425 -420 276 0
-425 -420 -276 0
420 -426 0
425 -426 0
-420 -425 426 0
140 -427 0
4 -427 0
-140 -4 427 0
-426 424 0
-427 424 0
426 427 -424 0
5 141 -429 0
-5 141 429 0
5 -141 429 0
-5 -141 -429 0
429 424 -277 0
-429 424 277 0
429 -424 277 0
-429 -424 -277 0
424 -430 0
429 -430 0
-424 -429 430 0
141 -431 0
5 -431 0
-141 -5 431 0
-430 428 0
-431 428 0
430 431 -428 0
6 142 -433 0
-6 142 433 0
6 -142 433 0
-6 -142 -433 0
433 428 -278 0
-433 428 278 0
433 -428 278 0
-433 -428 -278 0
428 -434 0
433 -434 0
-428 -433 434 0
142 -435 0
6 -435 0
-142 -6 435 0
-434 432 0
-435 432 0
434 435 -432 0
7 143 -437 0
-7 143 437 0
7 -143 437 0
-7 -143 -437 0
437 432 -279 0
-437 432 279 0
437 -432 279 0
-437 -432 -279 0
432 -438 0
437 -438 0
-432 -437 438 0
143 -439 0
7 -439 0
-143 -7 439 0
-438 436 0
-439 436 0
438 439 -436 0
8 144 -441 0
-8 144 441 0
8 -144 441 0
-8 -144 -441 0
441 436 -280 0
-441 436 280 0
441 -436 280 0
-441 -436 -280 0
436 -442 0
441 -442 0
-436 -441 442 0
144 -443 0
8 -443 0
-144 -8 443 0
-442 440 0
-443 440 0
442 443 -440 0
9 145 -445 0
-9 145 445 0
9 -145 445 0
-9 -145 -445 0
445 440 -281 0
-445 440 281 0
445 -440 281 0
-445 -440 -281 0
440 -446 0
445 -446 0
-440 -445 446 0
145 -447 0
9 -447 0
-145 -9 447 0
-446 444 0
-447 444 0
446 447 -444 0
10 146 -449 0
-10 146 449 0
10 -146 449 0
-10 -146 -449 0
449 444 -282 0
-449 444 282 0
449 -444 282 0
-449 -444 -282 0
444 -450 0
449 -450 0
-444 -449 450 0
146 -451 0
10 -451 0
-146 -10 451 0
-450 448 0
-451 448 0
450 451 -448 0
11 147 -453 0
-11 147 453 0
11 -147 453 0
-11 -147 -453 0
453 448 -283 0
-453 448 283 0
453 -448 283 0
-453 -448 -283 0
448 -454 0
453 -454 0
-448 -453 454 0
147 -455 0
11 -455 0
-147 -11 455 0
-454 452 0
-455 452 0
454 455 -452 0
12 148 -457 0
-12 148 457 0
12 -148 457 0
-12 -148 -457 0
457 452 -284 0
-457 452 284 0
457 -452 284 0
-457 -452 -284 0
452 -458 0
457 -458 0
-452 -457 458 0
148 -459 0
12 -459 0
-148 -12 459 0
-458 456 0
-459 456 0
458 459 -456 0
13 149 -461 0
-13 149 461 0
13 -149 461 0
-13 -149 -461 0
461 456 -285 0
-461 456 285 0
461 -456 285 0
-461 -456 -285 0
456 -462 0
461 -462 0
-456 -461 462 0
149 -463 0
13 -463 0
-149 -13 463 0
-462 460 0
-463 460 0
462 463 -460 0
14 150 -465 0
-14 150 465 0
14 -150 465 0
-14 -150 -465 0
465 460 -286 0
-465 460 286 0
465 -460 286 0
-465 -460 -286 0
460 -466 0
465 -466 0
-460 -465 466 0
150 -467 0
14 -467 0
-150 -14 467 0
-466 464 0
-467 464 0
466 467 -464 0
15 151 -469 0
-15 151 469 0
15 -151 469 0
-15 -151 -469 0
469 464 -287 0
-469 464 287 0
469 -464 287 0
-469 -464 -287 0
464 -470 0
469 -470 0
-464 -469 470 0
151 -471 0
15 -471 0
-151 -15 471 0
-470 468 0
-471 468 0
470 471 -468 0
16 152 -473 0
-16 152 473 0
16 -152 473 0
-16 -152 -473 0
473 468 -288 0
-473 468 288 0
473 -468 288 0
-473 -468 -288 0
468 -474 0
473 -474 0
-468 -473 474 0
152 -475 0
16 -475 0
-152 -16 475 0
-474 472 0
-475 472 0
474 475 -472 0
17 153 -477 0
-17 153 477 0
17 -153 477 0
-17 -153 -477 0
477 472 -289 0
-477 472 289 0
477 -472 289 0
-477 -472 -289 0
472 -478 0
477 -478 0
-472 -477 478 0
153 -479 0
17 -479 0
-153 -17 479 0
-478 476 0
-479 476 0
478 479 -476 0
18 154 -481 0
-18 154 481 0
18 -154 481 0
-18 -154 -481 0
481 476 -290 0
-481 476 290 0
481 -476 290 0
-481 -476 -290 0
476 -482 0
481 -482 0
-476 -481 482 0
154 -483 0
18 -483 0
-154 -18 483 0
-482 480 0
-483 480 0
482 483 -480 0
19 155 -485 0
-19 155 485 0
19 -155 485 0
-19 -155 -485 0
485 480 -291 0
-485 480 291 0
485 -480 291 0
-485 -480 -291 0
480 -486 0
485 -486 0
-480 -485 486 0
155 -487 0
19 -487 0
-155 -19 487 0
-486 484 0
-487 484 0
486 487 -484 0
20 156 -489 0
-20 156 489 0
20 -156 489 0
-20 -156 -489 0
489 484 -292 0
-489 484 292 0
489 -484 292 0
-489 -484 -292 0
484 -490 0
489 -490 0
-484 -489 490 0
156 -491 0
20 -491 0
-156 -20 491 0
-490 488 0
-491 488 0
490 491 -488 0
21 157 -493 0
-21 157 493 0
21 -157 493 0
-21 -157 -493 0
493 488 -293 0
-493 488 293 0
493 -488 293 0
-493 -488 -293 0
488 -494 0
493 -494 0
-488 -493 494 0
157 -495 0
21 -495 0
-157 -21 495 0
-494 492 0
-495 492 0
494 495 -492 0
22 158 -497 0
-22 158 497 0
22 -158 497 0
-22 -158 -497 0
497 492 -294 0
-497 492 294 0
497 -492 294 0
-497 -492 -294 0
492 -498 0
497 -498 0
-492 -497 498 0
158 -499 0
22 -499 0
-158 -22 499 0
-498 496 0
-499 496 0
498 499 -496 0
23 159 -501 0
-23 159 501 0
23 -159 501 0
-23 -159 -501 0
501 496 -295 0
-501 496 295 0
501 -496 295 0
-501 -496 -295 0
496 -502 0
501 -502 0
-496 -501 502 0
159 -503 0
23 -503 0
-159 -23 503 0
-502 500 0
-503 500 0
502 503 -500 0
24 160 -505 0
-24 160 505 0
24 -160 505 0
-24 -160 -505 0
505 500 -296 0
-505 500 296 0
505 -500 296 0
-505 -500 -296 0
500 -506 0
505 -506 0
-500 -505 506 0
160 -507 0
24 -507 0
-160 -24 507 0
-506 504 0
-507 504 0
506 507 -504 0
25 161 -509 0
-25 161 509 0
25 -161 509 0
-25 -161 -509 0
509 504 -297 0
-509 504 297 0
509 -504 297 0
-509 -504 -297 0
504 -510 0
509 -510 0
-504 -509 510 0
161 -511 0
25 -511 0
-161 -25 511 0
-510 508 0
-511 508 0
510 511 -508 0
26 162 -513 0
-26 162 513 0
26 -162 513 0
-26 -162 -513 0
513 508 -298 0
-513 508 298 0
513 -508 298 0
-513 -508 -298 0
508 -514 0
513 -514 0
-508 -513 514 0
162 -515 0
26 -515 0
-162 -26 515 0
-514 512 0
-515 512 0
514 515 -512 0
27 163 -517 0
-27 163 517 0
27 -163 517 0
-27 -163 -517 0
517 512 -299 0
-517 512 299 0
517 -512 299 0
-517 -512 -299 0
512 -518 0
517 -518 0
-512 -517 518 0
163 -519 0
27 -519 0
-163 -27 519 0
-518 516 0
-519 516 0
518 519 -516 0
28 164 -521 0
-28 164 521 0
28 -164 521 0
-28 -164 -521 0
521 516 -300 0
-521 516 300 0
521 -516 300 0
-521 -516 -300 0
516 -522 0
521 -522 0
-516 -521 522 0
164 -523 0
28 -523 0
-164 -28 523 0
-522 520 0
-523 520 0
522 523 -520 0
29 165 -525 0
-29 165 525 0
29 -165 525 0
-29 -165 -525 0
525 520 -301 0
-525 520 301 0
525 -520 301 0
-525 -520 -301 0
520 -526 0
525 -526 0
-520 -525 526 0
165 -527 0
29 -527 0
-165 -29 527 0
-526 524 0
-527 524 0
526 527 -524 0
30 166 -529 0
-30 166 529 0
30 -166 529 0
-30 -166 -529 0
529 524 -302 0
-529 524 302 0
529 -524 302 0
-529 -524 -302 0
524 -530 0
529 -530 0
-524 -529 530 0
166 -531 0
30 -531 0
-166 -30 531 0
-530 528 0
-531 528 0
530 531 -528 0
31 167 -533 0
-31 167 533 0
31 -167 533 0
-31 -167 -533 0
533 528 -303 0
-533 528 303 0
533 -528 303 0
-533 -528 -303 0
528 -534 0
533 -534 0
-528 -533 534 0
167 -535 0
31 -535 0
-167 -31 535 0
-534 532 0
-535 532 0
534 535 -532 0
32 168 -537 0
-32 168 537 0
32 -168 537 0
-32 -168 -537 0
537 532 -304 0
-537 532 304 0
537 -532 304 0
-537 -532 -304 0
532 -538 0
537 -538 0
-532 -537 538 0
168 -539 0
32 -539 0
-168 -32 539 0
-538 536 0
-539 536 0
538 539 -536 0
33 169 -541 0
-33 169 541 0
33 -169 541 0
-33 -169 -541 0
541 536 -305 0
-541 536 305 0
541 -536 305 0
-541 -536 -305 0
536 -542 0
541 -542 0
-536 -541 542 0
169 -543 0
33 -543 0
-169 -33 543 0
-542 540 0
-543 540 0
542 543 -540 0
34 170 -545 0
-34 170 545 0
34 -170 545 0
-34 -170 -545 0
545 540 -306 0
-545 540 306 0
545 -540 306 0
-545 -540 -306 0
540 -546 0
545 -546 0
-540 -545 546 0
170 -547 0
34 -547 0
-170 -34 547 0
-546 544 0
-547 544 0
546 547 -544 0
35 171 -549 0
-35 171 549 0
35 -171 549 0
-35 -171 -549 0
549 544 -307 0
-549 544 307 0
549 -544 307 0
-549 -544 -307 0
544 -550 0
549 -550 0
-544 -549 550 0
171 -551 0
35 -551 0
-171 -35 551 0
-550 548 0
-551 548 0
550 551 -548 0
36 172 -553 0
-36 172 553 0
36 -172 553 0
-36 -172 -553 0
553 548 -308 0
-553 548 308 0
553 -548 308 0
-553 -548 -308 0
548 -554 0
553 -554 0
-548 -553 554 0
172 -555 0
36 -555 0
-172 -36 555 0
-554 552 0
-555 552 0
554 555 -552 0
37 173 -557 0
-37 173 557 0
37 -173 557 0
-37 -173 -557 0
557 552 -309 0
-557 552 309 0
557 -552 309 0
-557 -552 -309 0
552 -558 0
557 -558 0
-552 -557 558 0
173 -559 0
37 -559 0
-173 -37 559 0
-558 556 0
-559 556 0
558 559 -556 0
38 174 -561 0
-38 174 561 0
38 -174 561 0
-38 -174 -561 0
561 556 -310 0
-561 556 310 0
561 -556 310 0
-561 -556 -310 0
556 -562 0
561 -562 0
-556 -561 562 0
174 -563 0
38 -563 0
-174 -38 563 0
-562 560 0
-563 560 0
562 563 -560 0
39 175 -565 0
-39 175 565 0
39 -175 565 0
-39 -175 -565 0
565 560 -311 0
-565 560 311 0
565 -560 311 0
-565 -560 -311 0
560 -566 0
565 -566 0
-560 -565 566 0
175 -567 0
39 -567 0
-175 -39 567 0
-566 564 0
-567 564 0
566 567 -564 0
40 176 -569 0
-40 176 569 0
40 -176 569 0
-40 -176 -569 0
569 564 -312 0
-569 564 312 0
569 -564 312 0
-569 -564 -312 0
564 -570 0
569 -570 0
-564 -569 570 0
176 -571 0
40 -571 0
-176 -40 571 0
-570 568 0
-571 568 0
570 571 -568 0
41 177 -573 0
-41 177 573 0
41 -177 573 0
-41 -177 -573 0
573 568 -313 0
-573 568 313 0
573 -568 313 0
-573 -568 -313 0
568 -574 0
573 -574 0
-568 -573 574 0
177 -575 0
41 -575 0
-177 -41 575 0
-574 572 0
-575 572 0
574 575 -572 0
42 178 -577 0
-42 178 577 0
42 -178 577 0
-42 -178 -577 0
577 572 -314 0
-577 572 314 0
577 -572 314 0
-577 -572 -314 0
572 -578 0
577 -578 0
-572 -577 578 0
178 -579 0
42 -579 0
-178 -42 579 0
-578 576 0
-579 576 0
578 579 -576 0
43 179 -581 0
-43 179 581 0
43 -179 581 0
-43 -179 -581 0
581 576 -315 0
-581 576 315 0
581 -576 315 0
-581 -576 -315 0
576 -582 0
581 -582 0
-576 -581 582 0
179 -583 0
43 -583 0
-179 -43 583 0
-582 580 0
-583 580 0
582 583 -580 0
44 180 -585 0
-44 180 585 0
44 -180 585 0
-44 -180 -585 0
585 580 -316 0
-585 580 316 0
585 -580 316 0
-585 -580 -316 0
580 -586 0
585 -586 0
-580 -585 586 0
180 -587 0
44 -587 0
-180 -44 587 0
-586 584 0
-587 584 0
586 587 -584 0
45 181 -589 0
-45 181 589 0
45 -181 589 0
-45 -181 -589 0
589 584 -317 0
-589 584 317 0
589 -584 317 0
-589 -584 -317 0
584 -590 0
589 -590 0
-584 -589 590 0
181 -591 0
45 -591 0
-181 -45 591 0
-590 588 0
-591 588 0
590 591 -588 0
46 182 -593 0
-46 182 593 0
46 -182 593 0
-46 -182 -593 0
593 588 -318 0
-593 588 318 0
593 -588 318 0
-593 -588 -318 0
588 -594 0
593 -594 0
-588 -593 594 0
182 -595 0
46 -595 0
-182 -46 595 0
-594 592 0
-595 592 0
594 595 -592 0
47 183 -597 0
-47 183 597 0
47 -183 597 0
-47 -183 -597 0
597 592 -319 0
-597 592 319 0
597 -592 319 0
-597 -592 -319 0
592 -598 0
597 -598 0
-592 -597 598 0
183 -599 0
47 -599 0
-183 -47 599 0
-598 596 0
-599 596 0
598 599 -596 0
48 184 -601 0
-48 184 601 0
48 -184 601 0
-48 -184 -601 0
601 596 -320 0
-601 596 320 0
601 -596 320 0
-601 -596 -320 0
596 -602 0
601 -602 0
-596 -601 602 0
184 -603 0
48 -603 0
-184 -48 603 0
-602 600 0
-603 600 0
602 603 -600 0
49 185 -605 0
-49 185 605 0
49 -185 605 0
-49 -185 -605 0
605 600 -321 0
-605 600 321 0
605 -600 321 0
-605 -600 -321 0
600 -606 0
605 -606 0
-600 -605 606 0
185 -607 0
49 -607 0
-185 -49 607 0
-606 604 0
-607 604 0
606 607 -604 0
50 186 -609 0
-50 186 609 0
50 -186 609 0
-50 -186 -609 0
609 604 -322 0
-609 604 322 0
609 -604 322 0
-609 -604 -322 0
604 -610 0
609 -610 0
-604 -609 610 0
186 -611 0
50 -611 0
-186 -50 611 0
-610 608 0
-611 608 0
610 611 -608 0
51 187 -613 0
-51 187 613 0
51 -187 613 0
-51 -187 -613 0
613 608 -323 0
-613 608 323 0
613 -608 323 0
-613 -608 -323 0
608 -614 0
613 -614 0
-608 -613 614 0
187 -615 0
51 -615 0
-187 -51 615 0
-614 612 0
-615 612 0
614 615 -612 0
52 188 -617 0
-52 188 617 0
52 -188 617 0
-52 -188 -617 0
617 612 -324 0
-617 612 324 0
617 -612 324 0
-617 -612 -324 0
612 -618 0
617 -618 0
-612 -617 618 0
188 -619 0
52 -619 0
-188 -52 619 0
-618 616 0
-619 616 0
618 619 -616 0
53 189 -621 0
-53 189 621 0
53 -189 621 0
-53 -189 -621 0
621 616 -325 0
-621 616 325 0
621 -616 325 0
-621 -616 -325 0
616 -622 0
621 -622 0
-616 -621 622 0
189 -623 0
53 -623 0
-189 -53 623 0
-622 620 0
-623 620 0
622 623 -620 0
54 190 -625 0
-54 190 625 0
54 -190 625 0
-54 -190 -625 0
625 620 -326 0
-625 620 326 0
625 -620 326 0
-625 -620 -326 0
620 -626 0
625 -626 0
-620 -625 626 0
190 -627 0
54 -627 0
-190 -54 627 0
-626 624 0
-627 624 0
626 627 -624 0
55 191 -629 0
-55 191 629 0
55 -191 629 0
-55 -191 -629 0
629 624 -327 0
-629 624 327 0
629 -624 327 0
-629 -624 -327 0
624 -630 0
629 -630 0
-624 -629 630 0
191 -631 0
55 -631 0
-191 -55 631 0
-630 628 0
-631 628 0
630 631 -628 0
56 192 -633 0
-56 192 633 0
56 -192 633 0
-56 -192 -633 0
633 628 -328 0
-633 628 328 0
633 -628 328 0
-633 -628 -328 0
628 -634 0
633 -634 0
-628 -633 634 0
192 -635 0
56 -635 0
-192 -56 635 0
-634 632 0
-635 632 0
634 635 -632 0
57 193 -637 0
-57 193 637 0
57 -193 637 0
-57 -193 -637 0
637 632 -329 0
-637 632 329 0
637 -632 329 0
-637 -632 -329 0
632 -638 0
637 -638 0
-632 -637 638 0
193 -639 0
57 -639 0
-193 -57 639 0
-638 636 0
-639 636 0
638 639 -636 0
58 194 -641 0
-58 194 641 0
58 -194 641 0
-58 -194 -641 0
641 636 -330 0
-641 636 330 0
641 -636 330 0
-641 -636 -330 0
636 -642 0
641 -642 0
-636 -641 642 0
194 -643 0
58 -643 0
-194 -58 643 0
-642 640 0
-643 640 0
642 643 -640 0
59 195 -645 0
-59 195 645 0
59 -195 645 0
-59 -195 -645 0
645 640 -331 0
-645 640 331 0
645 -640 331 0
-645 -640 -331 0
640 -646 0
645 -646 0
-640 -645 646 0
195 -647 0
59 -647 0
-195 -59 647 0
-646 644 0
-647 644 0
646 647 -644 0
60 196 -649 0
-60 196 649 0
60 -196 649 0
-60 -196 -649 0
649 644 -332 0
-649 644 332 0
649 -644 332 0
-649 -644 -332 0
644 -650 0
649 -650 0
-644 -649 650 0
196 -651 0
60 -651 0
-196 -60 651 0
-650 648 0
-651 648 0
650 651 -648 0
61 197 -653 0
-61 197 653 0
61 -197 653 0
-61 -197 -653 0
653 648 -333 0
-653 648 333 0
653 -648 333 0
-653 -648 -333 0
648 -654 0
653 -654 0
-648 -653 654 0
197 -655 0
61 -655 0
-197 -61 655 0
-654 652 0
-655 652 0
654 655 -652 0
62 198 -657 0
-62 198 657 0
62 -198 657 0
-62 -198 -657 0
657 652 -334 0
-657 652 334 0
657 -652 334 0
-657 -652 -334 0
652 -658 0
657 -658 0
-652 -657 658 0
198 -659 0
62 -659 0
-198 -62 659 0
-658 656 0
-659 656 0
658 659 -656 0
63 199 -661 0
-63 199 661 0
63 -199 661 0
-63 -199 -661 0
661 656 -335 0
-661 656 335 0
661 -656 335 0
-661 -656 -335 0
656 -662 0
661 -662 0
-656 -661 662 0
199 -663 0
63 -663 0
-199 -63 663 0
-662 660 0
-663 660 0
662 663 -660 0
64 200 -665 0
-64 200 665 0
64 -200 665 0
-64 -200 -665 0
665 660 -336 0
-665 660 336 0
665 -660 336 0
-665 -660 -336 0
660 -666 0
665 -666 0
-660 -665 666 0
200 -667 0
64 -667 0
-200 -64 667 0
-666 664 0
-667 664 0
666 667 -664 0
65 201 -669 0
-65 201 669 0
65 -201 669 0
-65 -201 -669 0
669 664 -337 0
-669 664 337 0
669 -664 337 0
-669 -664 -337 0
664 -670 0
669 -670 0
-664 -669 670 0
201 -671 0
65 -671 0
-201 -65 671 0
-670 668 0
-671 668 0
670 671 -668 0
66 202 -673 0
-66 202 673 0
66 -202 673 0
-66 -202 -673 0
673 668 -338 0
-673 668 338 0
673 -668 338 0
-673 -668 -338 0
668 -674 0
673 -674 0
-668 -673 674 0
202 -675 0
66 -675 0
-202 -66 675 0
-674 672 0
-675 672 0
674 675 -672 0
67 203 -677 0
-67 203 677 0
67 -203 677 0
-67 -203 -677 0
677 672 -339 0
-677 672 339 0
677 -672 339 0
-677 -672 -339 0
672 -678 0
677 -678 0
-672 -677 678 0
203 -679 0
67 -679 0
-203 -67 679 0
-678 676 0
-679 676 0
678 679 -676 0
68 204 -681 0
-68 204 681 0
68 -204 681 0
-68 -204 -681 0
681 676 -340 0
-681 676 340 0
681 -676 340 0
-681 -676 -340 0
676 -682 0
681 -682 0
-676 -681 682 0
204 -683 0
68 -683 0
-204 -68 683 0
-682 680 0
-683 680 0
682 683 -680 0
69 205 -685 0
-69 205 685 0
69 -205 685 0
-69 -205 -685 0
685 680 -341 0
-685 680 341 0
685 -680 341 0
-685 -680 -341 0
680 -686 0
685 -686 0
-680 -685 686 0
205 -687 0
69 -687 0
-205 -69 687 0
-686 684 0
-687 684 0
686 687 -684 0
70 206 -689 0
-70 206 689 0
70 -206 689 0
-70 -206 -689 0
689 684 -342 0
-689 684 342 0
689 -684 342 0
-689 -684 -342 0
684 -690 0
689 -690 0
-684 -689 690 0
206 -691 0
70 -691 0
-206 -70 691 0
-690 688 0
-691 688 0
690 691 -688 0
71 207 -693 0
-71 207 693 0
71 -207 693 0
-71 -207 -693 0
693 688 -343 0
-693 688 343 0
693 -688 343 0
-693 -688 -343 0
688 -694 0
693 -694 0
-688 -693 694 0
207 -695 0
71 -695 0
-207 -71 695 0
-694 692 0
-695 692 0
694 695 -692 0
72 208 -697 0
-72 208 697 0
72 -208 697 0
-72 -208 -697 0
697 692 -344 0
-697 692 344 0
697 -692 344 0
-697 -692 -344 0
692 -698 0
697 -698 0
-692 -697 698 0
208 -699 0
72 -699 0
-208 -72 699 0
-698 696 0
-699 696 0
698 699 -696 0
73 209 -701 0
-73 209 701 0
73 -209 701 0
-73 -209 -701 0
701 696 -345 0
-701 696 345 0
701 -696 345 0
-701 -696 -345 0
696 -702 0
701 -702 0
-696 -701 702 0
209 -703 0
73 -703 0
-209 -73 703 0
-702 700 0
-703 700 0
702 703 -700 0
74 210 -705 0
-74 210 705 0
74 -210 705 0
-74 -210 -705 0
705 700 -346 0
-705 700 346 0
705 -700 346 0
-705 -700 -346 0
700 -706 0
705 -706 0
-700 -705 706 0
210 -707 0
74 -707 0
-210 -74 707 0
-706 704 0
-707 704 0
706 707 -704 0
75 211 -709 0
-75 211 709 0
75 -211 709 0
-75 -211 -709 0
709 704 -347 0
-709 704 347 0
709 -704 347 0
-709 -704 -347 0
704 -710 0
709 -710 0
-704 -709 710 0
211 -711 0
75 -711 0
-211 -75 711 0
-710 708 0
-711 708 0
710 711 -708 0
76 212 -713 0
-76 212 713 0
76 -212 713 0
-76 -212 -713 0
713 708 -348 0
-713 708 348 0
713 -708 348 0
-713 -708 -348 0
708 -714 0
713 -714 0
-708 -713 714 0
212 -715 0
76 -715 0
-212 -76 715 0
-714 712 0
-715 712 0
714 715 -712 0
77 213 -717 0
-77 213 717 0
77 -213 717 0
-77 -213 -717 0
717 712 -349 0
-717 712 349 0
717 -712 349 0
-717 -712 -349 0
712 -718 0
717 -718 0
-712 -717 718 0
213 -719 0
77 -719 0
-213 -77 719 0
-718 716 0
-719 716 0
718 719 -716 0
78 214 -721 0
-78 214 721 0
78 -214 721 0
-78 -214 -721 0
721 716 -350 0
-721 716 350 0
721 -716 350 0
-721 -716 -350 0
716 -722 0
721 -722 0
-716 -721 722 0
214 -723 0
78 -723 0
-214 -78 723 0
-722 720 0
-723 720 0
722 723 -720 0
79 215 -725 0
-79 215 725 0
79 -215 725 0
-79 -215 -725 0
725 720 -351 0
-725 720 351 0
725 -720 351 0
-725 -720 -351 0
720 -726 0
725 -726 0
-720 -725 726 0
215 -727 0
79 -727 0
-215 -79 727 0
-726 724 0
-727 724 0
726 727 -724 0
80 216 -729 0
-80 216 729 0
80 -216 729 0
-80 -216 -729 0
729 724 -352 0
-729 724 352 0
729 -724 352 0
-729 -724 -352 0
724 -730 0
729 -730 0
-724 -729 730 0
216 -731 0
80 -731 0
-216 -80 731 0
-730 728 0
-731 728 0
730 731 -728 0
81 217 -733 0
-81 217 733 0
81 -217 733 0
-81 -217 -733 0
733 728 -353 0
-733 728 353 0
733 -728 353 0
-733 -728 -353 0
728 -734 0
733 -734 0
-728 -733 734 0
217 -735 0
81 -735 0
-217 -81 735 0
-734 732 0
-735 732 0
734 735 -732 0
82 218 -737 0
-82 218 737 0
82 -218 737 0
-82 -218 -737 0
737 732 -354 0
-737 732 354 0
737 -732 354 0
-737 -732 -354 0
732 -738 0
737 -738 0
-732 -737 738 0
218 -739 0
82 -739 0
-218 -82 739 0
-738 736 0
-739 736 0
738 739 -736 0
83 219 -741 0
-83 219 741 0
83 -219 741 0
-83 -219 -741 0
741 736 -355 0
-741 736 355 0
741 -736 355 0
-741 -736 -355 0
736 -742 0
741 -742 0
-736 -741 742 0
219 -743 0
83 -743 0
-219 -83 743 0
-742 740 0
-743 740 0
742 743 -740 0
84 220 -745 0
-84 220 745 0
84 -220 745 0
-84 -220 -745 0
745 740 -356 0
-745 740 356 0
745 -740 356 0
-745 -740 -356 0
740 -746 0
745 -746 0
-740 -745 746 0
220 -747 0
84 -747 0
-220 -84 747 0
-746 744 0
-747 744 0
746 747 -744 0
85 221 -749 0
-85 221 749 0
85 -221 749 0
-85 -221 -749 0
749 744 -357 0
-749 744 357 0
749 -744 357 0
-749 -744 -357 0
744 -750 0
749 -750 0
-744 -749 750 0
221 -751 0
85 -751 0
-221 -85 751 0
-750 748 0
-751 748 0
750 751 -748 0
86 222 -753 0
-86 222 753 0
86 -222 753 0
-86 -222 -753 0
753 748 -358 0
-753 748 358 0
753 -748 358 0
-753 -748 -358 0
748 -754 0
753 -754 0
-748 -753 754 0
222 -755 0
86 -755 0
-222 -86 755 0
-754 752 0
-755 752 0
754 755 -752 0
87 223 -757 0
-87 223 757 0
87 -223 757 0
-87 -223 -757 0
757 752 -359 0
-757 752 359 0
757 -752 359 0
-757 -752 -359 0
752 -758 0
757 -758 0
-752 -757 758 0
223 -759 0
87 -759 0
-223 -87 759 0
-758 756 0
-759 756 0
758 759 -756 0
88 224 -761 0
-88 224 761 0
88 -224 761 0
-88 -224 -761 0
761 756 -360 0
-761 756 360 0
761 -756 360 0
-761 -756 -360 0
756 -762 0
761 -762 0
-756 -761 762 0
224 -763 0
88 -763 0
-224 -88 763 0
-762 760 0
-763 760 0
762 763 -760 0
89 225 -765 0
-89 225 765 0
89 -225 765 0
-89 -225 -765 0
765 760 -361 0
-765 760 361 0
765 -760 361 0
-765 -760 -361 0
760 -766 0
765 -766 0
-760 -765 766 0
225 -767 0
89 -767 0
-225 -89 767 0
-766 764 0
-767 764 0
766 767 -764 0
90 226 -769 0
-90 226 769 0
90 -226 769 0
-90 -226 -769 0
769 764 -362 0
-769 764 362 0
769 -764 362 0
-769 -764 -362 0
764 -770 0
769 -770 0
-764 -769 770 0
226 -771 0
90 -771 0
-226 -90 771 0
-770 768 0
-771 768 0
770 771 -768 0
91 227 -773 0
-91 227 773 0
91 -227 773 0
-91 -227 -773 0
773 768 -363 0
-773 768 363 0
773 -768 363 0
-773 -768 -363 0
768 -774 0
773 -774 0
-768 -773 774 0
227 -775 0
91 -775 0
-227 -91 775 0
-774 772 0
-775 772 0
774 775 -772 0
92 228 -777 0
-92 228 777 0
92 -228 777 0
-92 -228 -777 0
777 772 -364 0
-777 772 364 0
777 -772 364 0
-777 -772 -364 0
772 -778 0
777 -778 0
-772 -777 778 0
228 -779 0
92 -779 0
-228 -92 779 0
-778 776 0
-779 776 0
778 779 -776 0
93 229 -781 0
-93 229 781 0
93 -229 781 0
-93 -229 -781 0
781 776 -365 0
-781 776 365 0
781 -776 365 0
-781 -776 -365 0
776 -782 0
781 -782 0
-776 -781 782 0
229 -783 0
93 -783 0
-229 -93 783 0
-782 780 0
-783 780 0
782 783 -780 0
94 230 -785 0
-94 230 785 0
94 -230 785 0
-94 -230 -785 0
785 780 -366 0
-785 780 366 0
785 -780 366 0
-785 -780 -366 0
780 -786 0
785 -786 0
-780 -785 786 0
230 -787 0
94 -787 0
-230 -94 787 0
-786 784 0
-787 784 0
786 787 -784 0
95 231 -789 0
-95 231 789 0
95 -231 789 0
-95 -231 -789 0
789 784 -367 0
-789 784 367 0
789 -784 367 0
-789 -784 -367 0
784 -790 0
789 -790 0
-784 -789 790 0
231 -791 0
95 -791 0
-231 -95 791 0
-790 788 0
-791 788 0
790 791 -788 0
96 232 -793 0
-96 232 793 0
96 -232 793 0
-96 -232 -793 0
793 788 -368 0
-793 788 368 0
793 -788 368 0
-793 -788 -368 0
788 -794 0
793 -794 0
-788 -793 794 0
232 -795 0
96 -795 0
-232 -96 795 0
-794 792 0
-795 792 0
794 795 -792 0
97 233 -797 0
-97 233 797 0
97 -233 797 0
-97 -233 -797 0
797 792 -369 0
-797 792 369 0
797 -792 369 0
-797 -792 -369 0
792 -798 0
797 -798 0
-792 -797 798 0
233 -799 0
97 -799 0
-233 -97 799 0
-798 796 0
-799 796 0
798 799 -796 0
98 234 -801 0
-98 234 801 0
98 -234 801 0
-98 -234 -801 0
801 796 -370 0
-801 796 370 0
801 -796 370 0
-801 -796 -370 0
796 -802 0
801 -802 0
-796 -801 802 0
234 -803 0
98 -803 0
-234 -98 803 0
-802 800 0
-803 800 0
802 803 -800 0
99 235 -805 0
-99 235 805 0
99 -235 805 0
-99 -235 -805 0
805 800 -371 0
-805 800 371 0
805 -800 371 0
-805 -800 -371 0
800 -806 0
805 -806 0
-800 -805 806 0
235 -807 0
99 -807 0
-235 -99 807 0
-806 804 0
-807 804 0
806 807 -804 0
100 236 -809 0
-100 236 809 0
100 -236 809 0
-100 -236 -809 0
809 804 -372 0
-809 804 372 0
809 -804 372 0
-809 -804 -372 0
804 -810 0
809 -810 0
-804 -809 810 0
236 -811 0
100 -811 0
-236 -100 811 0
-810 808 0
-811 808 0
810 811 -808 0
101 237 -813 0
-101 237 813 0
101 -237 813 0
-101 -237 -813 0
813 808 -373 0
-813 808 373 0
813 -808 373 0
-813 -808 -373 0
808 -814 0
813 -814 0
-808 -813 814 0
237 -815 0
101 -815 0
-237 -101 815 0
-814 812 0
-815 812 0
814 815 -812 0
102 238 -817 0
-102 238 817 0
102 -238 817 0
-102 -238 -817 0
817 812 -374 0
-817 812 374 0
817 -812 374 0
-817 -812 -374 0
812 -818 0
817 -818 0
-812 -817 818 0
238 -819 0
102 -819 0
-238 -102 819 0
-818 816 0
-819 816 0
818 819 -816 0
103 239 -821 0
-103 239 821 0
103 -239 821 0
-103 -239 -821 0
821 816 -375 0
-821 816 375 0
821 -816 375 0
-821 -816 -375 0
816 -822 0
821 -822 0
-816 -821 822 0
239 -823 0
103 -823 0
-239 -103 823 0
-822 820 0
-823 820 0
822 823 -820 0
104 240 -825 0
-104 240 825 0
104 -240 825 0
-104 -240 -825 0
825 820 -376 0
-825 820 376 0
825 -820 376 0
-825 -820 -376 0
820 -826 0
825 -826 0
-820 -825 826 0
240 -827 0
104 -827 0
-240 -104 827 0
-826 824 0
-827 824 0
826 827 -824 0
105 241 -829 0
-105 241 829 0
105 -241 829 0
-105 -241 -829 0
829 824 -377 0
-829 824 377 0
829 -824 377 0
-829 -824 -377 0
824 -830 0
829 -830 0
-824 -829 830 0
241 -831 0
105 -831 0
-241 -105 831 0
-830 828 0
-831 828 0
830 831 -828 0
106 242 -833 0
-106 242 833 0
106 -242 833 0
-106 -242 -833 0
833 828 -378 0
-833 828 378 0
833 -828 378 0
-833 -828 -378 0
828 -834 0
833 -834 0
-828 -833 834 0
242 -835 0
106 -835 0
-242 -106 835 0
-834 832 0
-835 832 0
834 835 -832 0
107 243 -837 0
-107 243 837 0
107 -243 837 0
-107 -243 -837 0
837 832 -379 0
-837 832 379 0
837 -832 379 0
-837 -832 -379 0
832 -838 0
837 -838 0
-832 -837 838 0
243 -839 0
107 -839 0
-243 -107 839 0
-838 836 0
-839 836 0
838 839 -836 0
108 244 -841 0
-108 244 841 0
108 -244 841 0
-108 -244 -841 0
841 836 -380 0
-841 836 380 0
841 -836 380 0
-841 -836 -380 0
836 -842 0
841 -842 0
-836 -841 842 0
244 -843 0
108 -843 0
-244 -108 843 0
-842 840 0
-843 840 0
842 843 -840 0
109 245 -845 0
-109 245 845 0
109 -245 845 0
-109 -245 -845 0
845 840 -381 0
-845 840 381 0
845 -840 381 0
-845 -840 -381 0
840 -846 0
845 -846 0
-840 -845 846 0
245 -847 0
109 -847 0
-245 -109 847 0
-846 844 0
-847 844 0
846 847 -844 0
110 246 -849 0
-110 246 849 0
110 -246 849 0
-110 -246 -849 0
849 844 -382 0
-849 844 382 0
849 -844 382 0
-849 -844 -382 0
844 -850 0
849 -850 0
-844 -849 850 0
246 -851 0
110 -851 0
-246 -110 851 0
-850 848 0
-851 848 0
850 851 -848 0
111 247 -853 0
-111 247 853 0
111 -247 853 0
-111 -247 -853 0
853 848 -383 0
-853 848 383 0
853 -848 383 0
-853 -848 -383 0
848 -854 0
853 -854 0
-848 -853 854 0
247 -855 0
111 -855 0
-247 -111 855 0
-854 852 0
-855 852 0
854 855 -852 0
112 248 -857 0
-112 248 857 0
112 -248 857 0
-112 -248 -857 0
857 852 -384 0
-857 852 384 0
857 -852 384 0
-857 -852 -384 0
852 -858 0
857 -858 0
-852 -857 858 0
248 -859 0
112 -859 0
-248 -112 859 0
-858 856 0
-859 856 0
858 859 -856 0
113 249 -861 0
-113 249 861 0
113 -249 861 0
-113 -249 -861 0
861 856 -385 0
-861 856 385 0
861 -856 385 0
-861 -856 -385 0
856 -862 0
861 -862 0
-856 -861 862 0
249 -863 0
113 -863 0
-249 -113 863 0
-862 860 0
-863 860 0
862 863 -860 0
114 250 -865 0
-114 250 865 0
114 -250 865 0
-114 -250 -865 0
865 860 -386 0
-865 860 386 0
865 -860 386 0
-865 -860 -386 0
860 -866 0
865 -866 0
-860 -865 866 0
250 -867 0
114 -867 0
-250 -114 867 0
-866 864 0
-867 864 0
866 867 -864 0
115 251 -869 0
-115 251 869 0
115 -251 869 0
-115 -251 -869 0
869 864 -387 0
-869 864 387 0
869 -864 387 0
-869 -864 -387 0
864 -870 0
869 -870 0
-864 -869 870 0
251 -871 0
115 -871 0
-251 -115 871 0
-870 868 0
-871 868 0
870 871 -868 0
116 252 -873 0
-116 252 873 0
116 -252 873 0
-116 -252 -873 0
873 868 -388 0
-873 868 388 0
873 -868 388 0
-873 -868 -388 0
868 -874 0
873 -874 0
-868 -873 874 0
252 -875 0
116 -875 0
-252 -116 875 0
-874 872 0
-875 872 0
874 875 -872 0
117 253 -877 0
-117 253 877 0
117 -253 877 0
-117 -253 -877 0
877 872 -389 0
-877 872 389 0
877 -872 389 0
-877 -872 -389 0
872 -878 0
877 -878 0
-872 -877 878 0
253 -879 0
117 -879 0
-253 -117 879 0
-878 876 0
-879 876 0
878 879 -876 0
118 254 -881 0
-118 254 881 0
118 -254 881 0
-118 -254 -881 0
881 876 -390 0
-881 876 390 0
881 -876 390 0
-881 -876 -390 0
876 -882 0
881 -882 0
-876 -881 882 0
254 -883 0
118 -883 0
-254 -118 883 0
-882 880 0
-883 880 0
882 883 -880 0
119 255 -885 0
-119 255 885 0
119 -255 885 0
-119 -255 -885 0
885 880 -391 0
-885 880 391 0
885 -880 391 0
-885 -880 -391 0
880 -886 0
885 -886 0
-880 -885 886 0
255 -887 0
119 -887 0
-255 -119 887 0
-886 884 0
-887 884 0
886 887 -884 0
120 256 -889 0
-120 256 889 0
120 -256 889 0
-120 -256 -889 0
889 884 -392 0
-889 884 392 0
889 -884 392 0
-889 -884 -392 0
884 -890 0
889 -890 0
-884 -889 890 0
256 -891 0
120 -891 0
-256 -120 891 0
-890 888 0
-891 888 0
890 891 -888 0
121 257 -893 0
-121 257 893 0
121 -257 893 0
-121 -257 -893 0
893 888 -393 0
-893 888 393 0
893 -888 393 0
-893 -888 -393 0
888 -894 0
893 -894 0
-888 -893 894 0
257 -895 0
121 -895 0
-257 -121 895 0
-894 892 0
-895 892 0
894 895 -892 0
122 258 -897 0
-122 258 897 0
122 -258 897 0
-122 -258 -897 0
897 892 -394 0
-897 892 394 0
897 -892 394 0
-897 -892 -394 0
892 -898 0
897 -898 0
-892 -897 898 0
258 -899 0
122 -899 0
-258 -122 899 0
-898 896 0
-899 896 0
898 899 -896 0
123 259 -901 0
-123 259 901 0
123 -259 901 0
-123 -259 -901 0
901 896 -395 0
-901 896 395 0
901 -896 395 0
-901 -896 -395 0
896 -902 0
901 -902 0
-896 -901 902 0
259 -903 0
123 -903 0
-259 -123 903 0
-902 900 0
-903 900 0
902 903 -900 0
124 260 -905 0
-124 260 905 0
124 -260 905 0
-124 -260 -905 0
905 900 -396 0
-905 900 396 0
905 -900 396 0
-905 -900 -396 0
900 -906 0
905 -906 0
-900 -905 906 0
260 -907 0
124 -907 0
-260 -124 907 0
-906 904 0
-907 904 0
906 907 -904 0
125 261 -909 0
-125 261 909 0
125 -261 909 0
-125 -261 -909 0
909 904 -397 0
-909 904 397 0
909 -904 397 0
-909 -904 -397 0
904 -910 0
909 -910 0
-904 -909 910 0
261 -911 0
125 -911 0
-261 -125 911 0
-910 908 0
-911 908 0
910 911 -908 0
126 262 -913 0
-126 262 913 0
126 -262 913 0
-126 -262 -913 0
913 908 -398 0
-913 908 398 0
913 -908 398 0
-913 -908 -398 0
908 -914 0
913 -914 0
-908 -913 914 0
262 -915 0
126 -915 0
-262 -126 915 0
-914 912 0
-915 912 0
914 915 -912 0
127 263 -917 0
-127 263 917 0
127 -263 917 0
-127 -263 -917 0
917 912 -399 0
-917 912 399 0
917 -912 399 0
-917 -912 -399 0
912 -918 0
917 -918 0
-912 -917 918 0
263 -919 0
127 -919 0
-263 -127 919 0
-918 916 0
-919 916 0
918 919 -916 0
128 264 -921 0
-128 264 921 0
128 -264 921 0
-128 -264 -921 0
921 916 -400 0
-921 916 400 0
921 -916 400 0
-921 -916 -400 0
916 -922 0
921 -922 0
-916 -921 922 0
264 -923 0
128 -923 0
-264 -128 923 0
-922 920 0
-923 920 0
922 923 -920 0
129 265 -925 0
-129 265 925 0
129 -265 925 0
-129 -265 -925 0
925 920 -401 0
-925 920 401 0
925 -920 401 0
-925 -920 -401 0
920 -926 0
925 -926 0
-920 -925 926 0
265 -927 0
129 -927 0
-265 -129 927 0
-926 924 0
-927 924 0
926 927 -924 0
130 266 -929 0
-130 266 929 0
130 -266 929 0
-130 -266 -929 0
929 924 -402 0
-929 924 402 0
929 -924 402 0
-929 -924 -402 0
924 -930 0
929 -930 0
-924 -929 930 0
266 -931 0
130 -931 0
-266 -130 931 0
-930 928 0
-931 928 0
930 931 -928 0
131 267 -933 0
-131 267 933 0
131 -267 933 0
-131 -267 -933 0
933 928 -403 0
-933 928 403 0
933 -928 403 0
-933 -928 -403 0
928 -934 0
933 -934 0
-928 -933 934 0
267 -935 0
131 -935 0
-267 -131 935 0
-934 932 0
-935 932 0
934 935 -932 0
132 268 -937 0
-132 268 937 0
132 -268 937 0
-132 -268 -937 0
937 932 -404 0
-937 932 404 0
937 -932 404 0
-937 -932 -404 0
932 -938 0
937 -938 0
-932 -937 938 0
268 -939 0
132 -939 0
-268 -132 939 0
-938 936 0
-939 936 0
938 939 -936 0
133 269 -941 0
-133 269 941 0
133 -269 941 0
-133 -269 -941 0
941 936 -405 0
-941 936 405 0
941 -936 405 0
-941 -936 -405 0
936 -942 0
941 -942 0
-936 -941 942 0
269 -943 0
133 -943 0
-269 -133 943 0
-942 940 0
-943 940 0
942 943 -940 0
134 270 -945 0
-134 270 945 0
134 -270 945 0
-134 -270 -945 0
945 940 -406 0
-945 940 406 0
945 -940 406 0
-945 -940 -406 0
940 -946 0
945 -946 0
-940 -945 946 0
270 -947 0
134 -947 0
-270 -134 947 0
-946 944 0
-947 944 0
946 947 -944 0
135 271 -949 0
-135 271 949 0
135 -271 949 0
-135 -271 -949 0
949 944 -407 0
-949 944 407 0
949 -944 407 0
-949 -944 -407 0
944 -950 0
949 -950 0
-944 -949 950 0
271 -951 0
135 -951 0
-271 -135 951 0
-950 948 0
-951 948 0
950 951 -948 0
136 272 -952 0
-136 272 952 0
136 -272 952 0
-136 -272 -952 0
952 948 -408 0
-952 948 408 0
952 -948 408 0
-952 -948 -408 0
948 -953 0
952 -953 0
-948 -952 953 0
272 -954 0
136 -954 0
-272 -136 954 0
-953 409 0
-954 409 0
953 954 -409 0
